; Options: -in -smt2
(set-option :produce-unsat-assumptions true)

(declare-fun start!2305 () Bool)

(assert start!2305)

(declare-datatypes ((array!907 0))(
  ( (array!908 (arr!399 (Array (_ BitVec 32) (_ BitVec 32))) (size!399 (_ BitVec 32))) )
))
(declare-fun lt!6384 () array!907)

(declare-fun b!11952 () Bool)

(declare-datatypes ((array!909 0))(
  ( (array!910 (arr!400 (Array (_ BitVec 32) (_ FloatingPoint 11 53))) (size!400 (_ BitVec 32))) )
))
(declare-fun q!93 () array!909)

(declare-fun jz!59 () (_ BitVec 32))

(declare-fun lt!6383 () (_ FloatingPoint 11 53))

(declare-datatypes ((Unit!1361 0))(
  ( (Unit!1362) )
))
(declare-datatypes ((tuple4!280 0))(
  ( (tuple4!281 (_1!318 Unit!1361) (_2!318 array!907) (_3!255 (_ BitVec 32)) (_4!140 (_ FloatingPoint 11 53))) )
))
(declare-fun e!6929 () tuple4!280)

(declare-fun computeModuloWhile!0 ((_ BitVec 32) array!909 array!907 (_ BitVec 32) (_ FloatingPoint 11 53)) tuple4!280)

(assert (=> b!11952 (= e!6929 (computeModuloWhile!0 jz!59 q!93 lt!6384 jz!59 lt!6383))))

(declare-fun b!11953 () Bool)

(declare-fun res!9315 () Bool)

(declare-fun e!6930 () Bool)

(assert (=> b!11953 (=> (not res!9315) (not e!6930))))

(declare-fun i!271 () (_ BitVec 32))

(declare-fun iq!194 () array!907)

(declare-fun QInt!0 ((_ BitVec 32)) Bool)

(assert (=> b!11953 (= res!9315 (QInt!0 (select (arr!399 iq!194) (bvsub (bvsub jz!59 #b00000000000000000000000000000001) i!271))))))

(declare-fun b!11954 () Bool)

(declare-fun e!6934 () Bool)

(declare-fun e!6931 () Bool)

(assert (=> b!11954 (= e!6934 e!6931)))

(declare-fun res!9320 () Bool)

(assert (=> b!11954 (=> (not res!9320) (not e!6931))))

(declare-fun lt!6385 () (_ FloatingPoint 11 53))

(assert (=> b!11954 (= res!9320 (and (fp.leq (fp #b0 #b00000000000 #b0000000000000000000000000000000000000000000000000000) lt!6385) (fp.lt lt!6385 (fp #b0 #b10000000010 #b0000000000000000000000000000000000000000000000000000))))))

(declare-fun lt!6387 () tuple4!280)

(assert (=> b!11954 (= lt!6385 (fp.sub roundNearestTiesToEven (_4!140 lt!6387) (fp.mul roundNearestTiesToEven (fp #b0 #b10000000010 #b0000000000000000000000000000000000000000000000000000) ((_ to_fp 11 53) roundNearestTiesToEven (ite (fp.isNaN (fp.mul roundNearestTiesToEven (_4!140 lt!6387) (fp #b0 #b01111111100 #b0000000000000000000000000000000000000000000000000000))) #b0000000000000000000000000000000000000000000000000000000000000000 (ite (fp.gt (fp.mul roundNearestTiesToEven (_4!140 lt!6387) (fp #b0 #b01111111100 #b0000000000000000000000000000000000000000000000000000)) ((_ to_fp 11 53) roundTowardZero #b0111111111111111111111111111111111111111111111111111111111111111)) #b0111111111111111111111111111111111111111111111111111111111111111 (ite (fp.lt (fp.mul roundNearestTiesToEven (_4!140 lt!6387) (fp #b0 #b01111111100 #b0000000000000000000000000000000000000000000000000000)) ((_ to_fp 11 53) roundTowardZero #b1000000000000000000000000000000000000000000000000000000000000000)) #b1000000000000000000000000000000000000000000000000000000000000000 ((_ fp.to_sbv 64) roundTowardZero (fp.mul roundNearestTiesToEven (_4!140 lt!6387) (fp #b0 #b01111111100 #b0000000000000000000000000000000000000000000000000000))))))))))))

(assert (=> b!11954 (= lt!6387 e!6929)))

(declare-fun c!1531 () Bool)

(assert (=> b!11954 (= c!1531 (bvsgt jz!59 #b00000000000000000000000000000000))))

(assert (=> b!11954 (= lt!6383 (select (arr!400 q!93) jz!59))))

(assert (=> b!11954 (= lt!6384 (array!908 ((as const (Array (_ BitVec 32) (_ BitVec 32))) #b00000000000000000000000000000000) #b00000000000000000000000000010100))))

(declare-fun res!9317 () Bool)

(assert (=> start!2305 (=> (not res!9317) (not e!6934))))

(assert (=> start!2305 (= res!9317 (and (bvsle #b00000000000000000000000000000010 jz!59) (bvslt jz!59 #b00000000000000000000000000010011)))))

(assert (=> start!2305 e!6934))

(assert (=> start!2305 true))

(declare-fun array_inv!348 (array!907) Bool)

(assert (=> start!2305 (array_inv!348 iq!194)))

(declare-fun qq!48 () array!909)

(declare-fun array_inv!349 (array!909) Bool)

(assert (=> start!2305 (array_inv!349 qq!48)))

(assert (=> start!2305 (array_inv!349 q!93)))

(declare-fun lt!6386 () (_ BitVec 32))

(declare-datatypes ((tuple4!282 0))(
  ( (tuple4!283 (_1!319 Unit!1361) (_2!319 (_ BitVec 32)) (_3!256 array!907) (_4!141 (_ BitVec 32))) )
))
(declare-fun e!6936 () tuple4!282)

(declare-fun b!11955 () Bool)

(declare-fun lt!6388 () (_ BitVec 32))

(declare-fun computeModuloWhile!3 ((_ BitVec 32) array!909 (_ BitVec 32) array!907 (_ BitVec 32)) tuple4!282)

(assert (=> b!11955 (= e!6936 (computeModuloWhile!3 jz!59 q!93 lt!6386 (_2!318 lt!6387) lt!6388))))

(declare-fun b!11956 () Bool)

(declare-fun res!9319 () Bool)

(assert (=> b!11956 (=> (not res!9319) (not e!6930))))

(assert (=> b!11956 (= res!9319 (bvslt i!271 jz!59))))

(declare-fun b!11957 () Bool)

(declare-fun lt!6381 () (_ BitVec 32))

(assert (=> b!11957 (= e!6930 (or (bvslt lt!6381 #b00000000000000000000000000000000) (bvsge lt!6381 #b00000000000000000000000000010100)))))

(assert (=> b!11957 (= lt!6381 (bvadd i!271 #b00000000000000000000000000000001))))

(declare-datatypes ((tuple3!230 0))(
  ( (tuple3!231 (_1!320 Unit!1361) (_2!320 array!907) (_3!257 (_ BitVec 32))) )
))
(declare-fun e!6935 () tuple3!230)

(declare-fun b!11958 () Bool)

(declare-fun lt!6390 () tuple4!282)

(declare-fun lt!6382 () (_ BitVec 32))

(declare-fun Unit!1363 () Unit!1361)

(assert (=> b!11958 (= e!6935 (tuple3!231 Unit!1363 (array!908 (store (arr!399 (_3!256 lt!6390)) (bvsub jz!59 #b00000000000000000000000000000001) (ite (= (_4!141 lt!6390) #b00000000000000000000000000000000) (bvsub #b00000001000000000000000000000000 lt!6382) (bvsub #b00000000111111111111111111111111 lt!6382))) (size!399 (_3!256 lt!6390))) (_4!141 lt!6390)))))

(assert (=> b!11958 (= lt!6386 #b00000000000000000000000000000000)))

(declare-fun c!1532 () Bool)

(assert (=> b!11958 (= c!1532 (bvslt lt!6386 (bvsub jz!59 #b00000000000000000000000000000001)))))

(assert (=> b!11958 (= lt!6390 e!6936)))

(assert (=> b!11958 (= lt!6382 (select (arr!399 (_3!256 lt!6390)) (bvsub jz!59 #b00000000000000000000000000000001)))))

(declare-fun b!11959 () Bool)

(declare-fun res!9318 () Bool)

(assert (=> b!11959 (=> (not res!9318) (not e!6934))))

(declare-fun qInv!0 (array!909) Bool)

(assert (=> b!11959 (= res!9318 (qInv!0 q!93))))

(declare-fun b!11960 () Bool)

(declare-fun res!9316 () Bool)

(assert (=> b!11960 (=> (not res!9316) (not e!6930))))

(declare-fun iqInv!0 (array!907) Bool)

(assert (=> b!11960 (= res!9316 (iqInv!0 iq!194))))

(declare-fun b!11961 () Bool)

(assert (=> b!11961 (= e!6931 e!6930)))

(declare-fun res!9314 () Bool)

(assert (=> b!11961 (=> (not res!9314) (not e!6930))))

(declare-fun lt!6389 () tuple3!230)

(declare-fun lt!6380 () Bool)

(assert (=> b!11961 (= res!9314 (and (bvsle #b00000000000000000000000000000000 (select (arr!399 (_2!320 lt!6389)) (bvsub jz!59 #b00000000000000000000000000000001))) (bvsle (select (arr!399 (_2!320 lt!6389)) (bvsub jz!59 #b00000000000000000000000000000001)) #b00000000100000000000000000000000) (or (not lt!6380) (not (= (_3!257 lt!6389) #b00000000000000000000000000000000)) (not (= (select (arr!399 (_2!320 lt!6389)) (bvsub jz!59 #b00000000000000000000000000000001)) #b00000000100000000000000000000000))) (bvsle (select (arr!399 (_2!320 lt!6389)) (bvsub jz!59 #b00000000000000000000000000000001)) #b00000000011111111111111111111111) (bvsle #b00000000000000000000000000000000 i!271) (bvsle i!271 jz!59)))))

(assert (=> b!11961 (= lt!6389 e!6935)))

(declare-fun c!1530 () Bool)

(assert (=> b!11961 (= c!1530 lt!6380)))

(assert (=> b!11961 (= lt!6388 #b00000000000000000000000000000000)))

(assert (=> b!11961 (= lt!6380 (bvsge (select (arr!399 (_2!318 lt!6387)) (bvsub jz!59 #b00000000000000000000000000000001)) #b00000000100000000000000000000000))))

(declare-fun b!11962 () Bool)

(declare-fun Unit!1364 () Unit!1361)

(assert (=> b!11962 (= e!6929 (tuple4!281 Unit!1364 lt!6384 jz!59 lt!6383))))

(declare-fun b!11963 () Bool)

(declare-fun res!9322 () Bool)

(assert (=> b!11963 (=> (not res!9322) (not e!6930))))

(declare-fun qqInv!0 (array!909) Bool)

(assert (=> b!11963 (= res!9322 (qqInv!0 qq!48))))

(declare-fun b!11964 () Bool)

(declare-fun Unit!1365 () Unit!1361)

(assert (=> b!11964 (= e!6936 (tuple4!283 Unit!1365 lt!6386 (_2!318 lt!6387) lt!6388))))

(declare-fun b!11965 () Bool)

(declare-fun res!9321 () Bool)

(assert (=> b!11965 (=> (not res!9321) (not e!6930))))

(assert (=> b!11965 (= res!9321 (and (bvsle (select (arr!399 iq!194) (bvsub jz!59 #b00000000000000000000000000000001)) #b00000000011111111111111111111111) (= (size!400 qq!48) #b00000000000000000000000000010100)))))

(declare-fun b!11966 () Bool)

(declare-fun Unit!1366 () Unit!1361)

(assert (=> b!11966 (= e!6935 (tuple3!231 Unit!1366 (_2!318 lt!6387) lt!6388))))

(assert (= (and start!2305 res!9317) b!11959))

(assert (= (and b!11959 res!9318) b!11954))

(assert (= (and b!11954 c!1531) b!11952))

(assert (= (and b!11954 (not c!1531)) b!11962))

(assert (= (and b!11954 res!9320) b!11961))

(assert (= (and b!11961 c!1530) b!11958))

(assert (= (and b!11961 (not c!1530)) b!11966))

(assert (= (and b!11958 c!1532) b!11955))

(assert (= (and b!11958 (not c!1532)) b!11964))

(assert (= (and b!11961 res!9314) b!11960))

(assert (= (and b!11960 res!9316) b!11965))

(assert (= (and b!11965 res!9321) b!11963))

(assert (= (and b!11963 res!9322) b!11956))

(assert (= (and b!11956 res!9319) b!11953))

(assert (= (and b!11953 res!9315) b!11957))

(declare-fun m!16485 () Bool)

(assert (=> b!11953 m!16485))

(assert (=> b!11953 m!16485))

(declare-fun m!16487 () Bool)

(assert (=> b!11953 m!16487))

(declare-fun m!16489 () Bool)

(assert (=> b!11954 m!16489))

(declare-fun m!16491 () Bool)

(assert (=> start!2305 m!16491))

(declare-fun m!16493 () Bool)

(assert (=> start!2305 m!16493))

(declare-fun m!16495 () Bool)

(assert (=> start!2305 m!16495))

(declare-fun m!16497 () Bool)

(assert (=> b!11958 m!16497))

(declare-fun m!16499 () Bool)

(assert (=> b!11958 m!16499))

(declare-fun m!16501 () Bool)

(assert (=> b!11959 m!16501))

(declare-fun m!16503 () Bool)

(assert (=> b!11961 m!16503))

(declare-fun m!16505 () Bool)

(assert (=> b!11961 m!16505))

(declare-fun m!16507 () Bool)

(assert (=> b!11960 m!16507))

(declare-fun m!16509 () Bool)

(assert (=> b!11965 m!16509))

(declare-fun m!16511 () Bool)

(assert (=> b!11952 m!16511))

(declare-fun m!16513 () Bool)

(assert (=> b!11955 m!16513))

(declare-fun m!16515 () Bool)

(assert (=> b!11963 m!16515))

(check-sat (not b!11955) (not b!11953) (not b!11959) (not start!2305) (not b!11963) (not b!11952) (not b!11960))
(check-sat)
